Problem:    interpolazione
Rows:       37
Columns:    32
Non-zeros:  161
Status:     OPTIMAL
Objective:  MassimoErrore = 0.3607629727 (MINimum)

   No.   Row name   St   Activity     Lower bound   Upper bound    Marginal
------ ------------ -- ------------- ------------- ------------- -------------
     1 Approssimazione[1]
                    NS            10            10             =    -0.0833333 
     2 Approssimazione[2]
                    NS            20            20             =   -0.00883905 
     3 Approssimazione[3]
                    NS            10            10             =   0.000395778 
     4 Approssimazione[4]
                    NS            15            15             =     0.0833333 
     5 Approssimazione[5]
                    NS             5             5             =    -0.0775945 
     6 Approssimazione[6]
                    NS            10            10             =     0.0462511 
     7 Approssimazione[7]
                    NS            10            10             =    -0.0350814 
     8 Approssimazione[8]
                    NS            20            20             =   -0.00989446 
     9 Approssimazione[9]
                    NS            12            12             =     0.0833333 
    10 Approssimazione[10]
                    NS            25            25             =    -0.0183707 
    11 Approssimazione[11]
                    NS             2             2             =     0.0833333 
    12 Approssimazione[12]
                    NS             5             5             =     -0.023263 
    13 MassimoErrore
                    B       0.360763                             
    14 Errore1[1]   B       0.844327            -0               
    15 Errore1[2]   NL             0            -0                   0.0372471 
    16 Errore1[3]   NL             0            -0                   0.0418646 
    17 Errore1[4]   NL             0            -0                   0.0833333 
    18 Errore1[5]   NL             0            -0                  0.00286939 
    19 Errore1[6]   NL             0            -0                   0.0647922 
    20 Errore1[7]   NL             0            -0                    0.024126 
    21 Errore1[8]   NL             0            -0                   0.0367194 
    22 Errore1[9]   NL             0            -0                   0.0833333 
    23 Errore1[10]  NL             0            -0                   0.0324813 
    24 Errore1[11]  NL             0            -0                   0.0833333 
    25 Errore1[12]  NL             0            -0                   0.0300352 
    26 Errore2[1]   NL             0            -0                   0.0833333 
    27 Errore2[2]   NL             0            -0                   0.0460862 
    28 Errore2[3]   NL             0            -0                   0.0414688 
    29 Errore2[4]   B        4.72296            -0               
    30 Errore2[5]   NL             0            -0                   0.0804639 
    31 Errore2[6]   NL             0            -0                   0.0185411 
    32 Errore2[7]   NL             0            -0                   0.0592073 
    33 Errore2[8]   NL             0            -0                   0.0466139 
    34 Errore2[9]   B        1.45515            -0               
    35 Errore2[10]  NL             0            -0                    0.050852 
    36 Errore2[11]  B        1.63588            -0               
    37 Errore2[12]  NL             0            -0                   0.0532982 

   No. Column name  St   Activity     Lower bound   Upper bound    Marginal
------ ------------ -- ------------- ------------- ------------- -------------
     1 x[1]         B        3.35752             0               
     2 x[2]         B        4.84828             0               
     3 x[3]         B        1.86675             0               
     4 x[4]         B        1.74802             0               
     5 x[5]         B        2.03166             0               
     6 x[6]         B        7.01187             0               
     7 x[7]         B        5.42876             0               
     8 x[8]         B      0.0923483             0               
     9 a[1]         B      -0.422164                             
    10 a[2]         B              0                             
    11 a[3]         B              0                             
    12 a[4]         B        2.36148                             
    13 a[5]         B              0                             
    14 a[6]         B              0                             
    15 a[7]         B              0                             
    16 a[8]         B              0                             
    17 a[9]         B       0.727573                             
    18 a[10]        B              0                             
    19 a[11]        B       0.817942                             
    20 a[12]        B              0                             
    21 err[1]       B       0.422164                             
    22 err[2]       B              0                             
    23 err[3]       B              0                             
    24 err[4]       B        2.36148                             
    25 err[5]       B              0                             
    26 err[6]       B              0                             
    27 err[7]       B              0                             
    28 err[8]       B              0                             
    29 err[9]       B       0.727573                             
    30 err[10]      B              0                             
    31 err[11]      B       0.817942                             
    32 err[12]      B              0                             

Karush-Kuhn-Tucker optimality conditions:

KKT.PE: max.abs.err = 5.55e-15 on row 15
        max.rel.err = 5.55e-15 on row 15
        High quality

KKT.PB: max.abs.err = 0.00e+00 on row 0
        max.rel.err = 0.00e+00 on row 0
        High quality

KKT.DE: max.abs.err = 4.86e-16 on column 29
        max.rel.err = 4.16e-16 on column 29
        High quality

KKT.DB: max.abs.err = 0.00e+00 on row 0
        max.rel.err = 0.00e+00 on row 0
        High quality

End of output
